# Solution for model r3_t9_m8_0
# Finished Task: 9 / 9
# Makespan: 540.0, Total Distance: 238.0, Total Time: 0.7391
# R O S F
0 0 6 86.0 86.0
1 1 4 87.0 87.0
2 2 9 52.0 52.0
3 0 10 341.0 380.0
4 1 -1 381.0 404.0
5 2 11 456.0 484.0
6 0 8 224.0 259.0
7 2 5 381.0 409.0
8 0 3 269.0 306.0
9 2 7 354.0 381.0
10 0 -1 400.0 437.0
11 2 -1 514.0 540.0
